Route #1: 57 94 64 105 69 17 2 77 67
Route #2: 74 99 11 34 72 29 96
Route #3: 82 63 31 40 13 54 85 21 49
Route #4: 104 1 53 87 60 51 100 45
Route #5: 76 43 103 93 97 28 101 5
Route #6: 83 48 8 36 91 88 58 14
Route #7: 7 75 84 9 12 15 44
Route #8: 62 26 90 24 102 92 52
Route #9: 33 22
Route #10: 78 19 27 37 79 71 46 66
Route #11: 86 18 41 10 16 20 56
Route #12: 35 73 32 3 23 42 30 89 59
Route #13: 55 98 4 70 6 81 50 39
Route #14: 25 47 61 80 65 38 95 68
Cost 26381
